(set-logic ALL)
(declare-fun var0 () String)
(assert (str.in_re var0 (re.++ (re.+ (re.* (str.to_re "000"))) (re.++ (re.+ (re.+ (str.to_re "1"))) (re.++ (re.+ (re.union (str.to_re "22") (str.to_re "3"))) (re.++ (re.union (re.+ (str.to_re "4")) (re.+ (str.to_re "5"))) (re.++ (re.+ (re.union (str.to_re "6") (str.to_re "77"))) (re.++ (re.* (re.* (str.to_re "888"))) (re.++ (re.* (re.+ (str.to_re "9"))) (re.++ (re.* (re.+ (str.to_re "aaa"))) (re.++ (re.union (re.union (str.to_re "bbb") (str.to_re "cc")) (re.union (str.to_re "d") (str.to_re "e"))) (re.++ (re.+ (re.+ (str.to_re "ff"))) (re.++ (re.+ (re.union (str.to_re "ggg") (str.to_re "h"))) (re.++ (re.union (re.* (str.to_re "ii")) (re.* (str.to_re "jj"))) (re.++ (re.union (re.* (str.to_re "kk")) (re.* (str.to_re "lll"))) (re.++ (re.+ (re.+ (str.to_re "mmm"))) (re.++ (re.+ (re.+ (str.to_re "n"))) (re.++ (re.+ (re.* (str.to_re "o"))) (re.++ (re.+ (re.union (str.to_re "ppp") (str.to_re "qqq"))) (re.++ (re.union (re.union (str.to_re "rr") (str.to_re "sss")) (re.union (str.to_re "t") (str.to_re "uu"))) (re.++ (re.union (re.* (str.to_re "v")) (re.* (str.to_re "ww"))) (re.++ (re.+ (re.union (str.to_re "xxx") (str.to_re "yy"))) (re.++ (re.* (re.union (str.to_re "zz") (str.to_re "AA"))) (re.++ (re.+ (re.+ (str.to_re "BBB"))) (re.++ (re.union (re.+ (str.to_re "CC")) (re.+ (str.to_re "DDD"))) (re.++ (re.+ (re.* (str.to_re "EEE"))) (re.++ (re.* (re.union (str.to_re "FF") (str.to_re "GG"))) (re.++ (re.* (re.* (str.to_re "HHH"))) (re.++ (re.+ (re.* (str.to_re "I"))) (re.++ (re.+ (re.union (str.to_re "J") (str.to_re "KK"))) (re.++ (re.* (re.* (str.to_re "LL"))) (re.++ (re.union (re.+ (str.to_re "M")) (re.+ (str.to_re "N"))) (re.++ (re.+ (re.union (str.to_re "O") (str.to_re "PPP"))) (re.++ (re.union (re.* (str.to_re "QQ")) (re.* (str.to_re "RRR"))) (re.++ (re.+ (re.+ (str.to_re "SS"))) (re.++ (re.* (re.union (str.to_re "TTT") (str.to_re "UU"))) (re.++ (re.union (re.union (str.to_re "VVV") (str.to_re "WWW")) (re.union (str.to_re "XX") (str.to_re "YY"))) (re.++ (re.+ (re.* (str.to_re "ZZZ"))) (re.++ (re.union (re.* (str.to_re "!!")) (re.* (str.to_re """"))) (re.++ (re.union (re.union (str.to_re "###") (str.to_re "$$$")) (re.union (str.to_re "%%") (str.to_re "&&"))) (re.++ (re.union (re.union (str.to_re "''") (str.to_re "((")) (re.union (str.to_re "))") (str.to_re "**"))) (re.++ (re.* (re.union (str.to_re "+") (str.to_re ",,"))) (re.++ (re.+ (re.* (str.to_re "--"))) (re.++ (re.* (re.+ (str.to_re ".."))) (re.++ (re.* (re.union (str.to_re "//") (str.to_re "::"))) (re.++ (re.union (re.+ (str.to_re ";")) (re.+ (str.to_re "<<<"))) (re.++ (re.+ (re.+ (str.to_re "=="))) (re.union (re.* (str.to_re ">>>")) (re.* (str.to_re "??"))))))))))))))))))))))))))))))))))))))))))))))))))
(assert (not (str.in_re var0 (re.++ (re.union (re.* (str.to_re "00")) (re.* (str.to_re "1"))) (re.++ (re.union (re.* (str.to_re "222")) (re.* (str.to_re "3"))) (re.++ (re.union (re.+ (str.to_re "44")) (re.+ (str.to_re "55"))) (re.++ (re.* (re.union (str.to_re "66") (str.to_re "7"))) (re.++ (re.union (re.+ (str.to_re "8")) (re.+ (str.to_re "99"))) (re.++ (re.union (re.* (str.to_re "aa")) (re.* (str.to_re "bbb"))) (re.++ (re.union (re.* (str.to_re "cc")) (re.* (str.to_re "ddd"))) (re.++ (re.+ (re.union (str.to_re "eee") (str.to_re "ff"))) (re.++ (re.+ (re.* (str.to_re "g"))) (re.++ (re.+ (re.union (str.to_re "h") (str.to_re "ii"))) (re.++ (re.+ (re.* (str.to_re "j"))) (re.++ (re.+ (re.+ (str.to_re "kk"))) (re.++ (re.+ (re.+ (str.to_re "ll"))) (re.++ (re.+ (re.+ (str.to_re "mm"))) (re.++ (re.+ (re.+ (str.to_re "n"))) (re.++ (re.* (re.+ (str.to_re "ooo"))) (re.++ (re.+ (re.union (str.to_re "ppp") (str.to_re "qqq"))) (re.++ (re.+ (re.+ (str.to_re "r"))) (re.++ (re.+ (re.union (str.to_re "sss") (str.to_re "t"))) (re.++ (re.* (re.* (str.to_re "uu"))) (re.++ (re.* (re.* (str.to_re "vv"))) (re.++ (re.+ (re.* (str.to_re "ww"))) (re.++ (re.union (re.* (str.to_re "xxx")) (re.* (str.to_re "y"))) (re.++ (re.union (re.+ (str.to_re "zzz")) (re.+ (str.to_re "A"))) (re.++ (re.* (re.* (str.to_re "BB"))) (re.++ (re.union (re.+ (str.to_re "CCC")) (re.+ (str.to_re "D"))) (re.++ (re.+ (re.union (str.to_re "EEE") (str.to_re "FFF"))) (re.++ (re.+ (re.+ (str.to_re "G"))) (re.++ (re.* (re.union (str.to_re "HH") (str.to_re "II"))) (re.++ (re.* (re.union (str.to_re "JJ") (str.to_re "KK"))) (re.++ (re.* (re.+ (str.to_re "LL"))) (re.++ (re.+ (re.+ (str.to_re "MM"))) (re.++ (re.* (re.* (str.to_re "NNN"))) (re.++ (re.union (re.union (str.to_re "OO") (str.to_re "PP")) (re.union (str.to_re "QQ") (str.to_re "RR"))) (re.++ (re.* (re.union (str.to_re "SS") (str.to_re "TT"))) (re.++ (re.+ (re.+ (str.to_re "UU"))) (re.++ (re.* (re.union (str.to_re "V") (str.to_re "WW"))) (re.++ (re.* (re.+ (str.to_re "XX"))) (re.++ (re.union (re.union (str.to_re "Y") (str.to_re "ZZZ")) (re.union (str.to_re "!") (str.to_re """"""))) (re.++ (re.union (re.* (str.to_re "##")) (re.* (str.to_re "$"))) (re.++ (re.union (re.+ (str.to_re "%")) (re.+ (str.to_re "&"))) (re.++ (re.* (re.union (str.to_re "'") (str.to_re "((("))) (re.++ (re.+ (re.+ (str.to_re ")"))) (re.++ (re.union (re.union (str.to_re "*") (str.to_re "++")) (re.union (str.to_re ",,,") (str.to_re "-"))) (re.++ (re.* (re.* (str.to_re "."))) (re.+ (re.* (str.to_re "///")))))))))))))))))))))))))))))))))))))))))))))))))))
(check-sat)